NAME : ../File/prFile/tspFile/tsp_file17.tsp.458.tour
COMMENT : Length = 458
COMMENT : Found by LKH-3 [Keld Helsgaun] Wed Jun 14 17:47:17 2023
TYPE : TOUR
DIMENSION : 30
TOUR_SECTION
1
15
18
13
28
8
11
27
25
7
22
17
29
5
16
2
6
3
12
14
26
20
23
4
24
9
30
21
10
19
-1
EOF
